SumColouring/JavaBacktracker/RandomInstances/34_0.05_3.col
c File: instances/34_0.05_3.col
c
c Description: Random graph of size 34 vertices and P(0.05) of edges between any two vertices.
p col 34 561
e 1 15
e 2 9
e 2 34
e 3 12
e 5 28
e 6 12
e 7 22
e 7 34
e 8 17
e 9 30
e 10 27
e 11 27
e 12 32
e 13 18
e 15 23
e 16 21
e 18 21
e 19 25
e 20 27
e 21 28
e 22 31
e 24 27
e 27 30
e 29 30